NAME : u159.124576.tour
COMMENT : Cost = 13244_124576
COMMENT : Found by LKH [Keld Helsgaun] Thu Nov 16 17:38:10 2017
TYPE : TOUR
DIMENSION : 178
TOUR_SECTION
1
3
160
2
161
4
162
158
163
156
164
126
165
5
166
157
167
6
168
153
169
154
170
131
42
43
45
50
74
64
65
66
67
68
69
70
71
72
73
76
75
48
47
123
128
127
175
124
114
115
116
117
118
92
94
88
87
96
95
93
174
151
148
147
146
144
143
142
32
31
30
29
28
27
26
25
24
23
22
21
20
19
18
17
16
15
14
13
12
11
10
9
8
7
152
172
125
113
112
111
110
109
108
107
106
105
104
103
102
101
100
99
98
97
86
85
84
83
82
81
80
79
78
77
89
90
91
119
120
121
122
130
129
173
136
38
55
57
58
59
40
39
135
177
60
132
176
137
37
36
56
33
34
35
138
140
139
141
145
149
150
155
171
44
46
49
51
62
61
63
54
53
52
41
134
133
178
159
-1
EOF
